31      4       
12      9       10      9       
0       0       0       0       0       10      2       3       4       5       6       7       9       28      29      30      
4       1       1       0       1       11      10      13      14      15      16      18      20      21      22      23      27      
8       2       2       1       0       8       10      11      12      14      15      16      17      23      
1       5       5       4       1       6       8       10      11      12      13      22      
1       3       4       5       1       4       17      19      21      26      
8       7       4       0       2       3       12      15      20      
5       7       4       6       7       2       16      19      
5       1       0       4       3       1       24      
6       11      2       4       0       1       25      
1       9       4       3       1       1       31      
7       3       3       5       5       1       31      
10      4       0       5       2       1       31      
1       0       3       3       4       1       31      
8       3       2       6       1       1       31      
5       3       4       3       0       1       31      
1       7       4       4       8       1       31      
1       5       1       3       6       1       31      
2       3       4       0       4       1       31      
4       7       5       3       1       1       31      
10      1       4       0       3       1       31      
3       11      9       6       6       1       31      
3       0       3       3       2       1       31      
8       2       0       5       5       1       31      
9       9       6       7       5       1       31      
8       2       5       0       4       1       31      
7       0       4       2       5       1       31      
8       0       2       3       2       1       31      
9       7       6       7       3       1       31      
6       5       0       4       2       1       31      
3       9       5       7       9       1       31      
0       0       0       0       0       0       
